SPARKNaCl/why3-z3/sparknacl-core.adb_115_25_range_check3_1.smt2
;; produced by z3_gnatprove.drv ;;
(set-info :smt-lib-version 2.5)
(set-info :source |VC generated by SPARK 2014|)
(set-info :category industrial)
(set-info :status unknown)
;;; generated by SMT-LIB2 driver
;;; SMT-LIB2 driver: bit-vectors, common part
;;; SMT-LIB2: integer arithmetic
(declare-sort byte 0)

;; "to_rep"
(declare-fun to_rep (byte) (_ BitVec 8))

;; "of_rep"
(declare-fun of_rep ((_ BitVec 8)) byte)

;; "inversion_axiom"
(assert
  (forall ((x byte)) (! (= (of_rep (to_rep x)) x) :pattern ((to_rep x)) )))

;; "range_axiom"
(assert true)

;; "coerce_axiom"
(assert
  (forall ((x (_ BitVec 8)))
    (! (= (to_rep (of_rep x)) x) :pattern ((to_rep (of_rep x))) )))

(declare-sort map1 0)

;; "has_bounds"
(declare-fun has_bounds (map1
  Int
  Int) Bool)

;; "get"
(declare-fun get (map1
  Int) byte)

;; "slide"
(declare-fun slide (map1
  Int
  Int) map1)

;; "slide_eq"
(assert
  (forall ((a map1) (first Int))
    (! (= (slide a first first) a) :pattern ((slide a first first)) )))

;; "slide_def"
(assert
  (forall ((a map1) (old_first Int) (new_first Int))
    (! (and
         (forall ((i Int))
           (! (= (get (slide a old_first new_first) i) (get
                                                         a
                                                         (- i (- new_first old_first)))) :pattern (
           (get
             (slide a old_first new_first)
             i)) ))
         (forall ((new_last Int))
           (! (=>
                (has_bounds a old_first (- new_last (- new_first old_first)))
                (has_bounds (slide a old_first new_first) new_first new_last)) :pattern (
           (has_bounds
             (slide a old_first new_first)
             new_first
             new_last)) ))) :pattern ((slide a old_first new_first)) )))

;; "slice"
(declare-fun slice (map1
  Int
  Int) map1)

;; "slice_eq"
(assert
  (forall ((a map1) (f Int) (l Int))
    (! (=> (has_bounds a f l) (= (slice a f l) a)) :pattern ((slice a f l)
    (has_bounds a f l)) )))

;; "slice_slice"
(assert
  (forall ((a map1) (f1 Int) (l1 Int) (f2 Int) (l2 Int))
    (! (=>
         (and (<= f1 f2) (<= l2 l1))
         (= (slice (slice a f1 l1) f2 l2) (slice a f2 l2))) :pattern (
    (slice
      (slice a f1 l1)
      f2
      l2)) )))

;; "slice_def"
(assert
  (forall ((a map1) (f Int) (l Int))
    (! (forall ((i Int))
         (! (=> (and (<= f i) (<= i l)) (= (get (slice a f l) i) (get a i))) :pattern (
         (get
           (slice a f l)
           i)) :pattern ((get a i)) )) :pattern ((slice a f l)) )))

;; "slice_has_bounds"
(assert
  (forall ((a map1) (f Int) (l Int))
    (! (has_bounds (slice a f l) f l) :pattern ((has_bounds
                                                  (slice a f l)
                                                  f
                                                  l)) )))

(declare-datatypes ()
  ((us_split_fields
   (us_split_fieldsqtmk (rec__ada___sparknacl__core__salsa20_key__f map1)))))

(declare-datatypes ()
  ((us_rep (us_repqtmk (us_split_fields1 us_split_fields)))))

;; "dynamic_invariant"
(define-fun dynamic_invariant ((temp___expr_300 us_rep) (temp___is_init_296 Bool) (temp___skip_constant_297 Bool) (temp___do_toplevel_298 Bool) (temp___do_typ_inv_299 Bool)) Bool
  (has_bounds
    (rec__ada___sparknacl__core__salsa20_key__f
      (us_split_fields1 temp___expr_300))
    0
    31))

(declare-const input map1)

(declare-const k us_rep)

(declare-const c map1)

(declare-sort u32 0)

;; "to_rep"
(declare-fun to_rep1 (u32) (_ BitVec 32))

;; "of_rep"
(declare-fun of_rep1 ((_ BitVec 32)) u32)

;; "inversion_axiom"
(assert
  (forall ((x u32)) (! (= (of_rep1 (to_rep1 x)) x) :pattern ((to_rep1 x)) )))

;; "range_axiom"
(assert true)

;; "coerce_axiom"
(assert
  (forall ((x (_ BitVec 32)))
    (! (= (to_rep1 (of_rep1 x)) x) :pattern ((to_rep1 (of_rep1 x))) )))

(declare-sort map2 0)

(declare-datatypes ()
  ((map__ref (map__refqtmk (map__content map2)))))

;; "has_bounds"
(declare-fun has_bounds1 (map2
  Int
  Int) Bool)

;; "get"
(declare-fun get1 (map2
  Int) u32)

;; "ld32"
(declare-fun ld32 (map1) (_ BitVec 32))

;; "ld32__function_guard"
(declare-fun ld32__function_guard ((_ BitVec 32)
  map1) Bool)

;; "temp_____aggregate_def_1491"
(declare-fun temp_____aggregate_def_1491 ((_ BitVec 32)) map2)

(declare-const x map2)

(declare-const y map2)

(declare-const w map2)

(declare-const t map2)

;; "t'unused"
(define-fun tqtunused () map__ref
  (map__refqtmk t))

;; "w'unused"
(define-fun wqtunused () map__ref
  (map__refqtmk w))

;; "Assume"
(assert (has_bounds input 0 15))

;; "Assume"
(assert (dynamic_invariant k true false true true))

;; "Assume"
(assert (has_bounds c 0 15))

;; "Assume"
(assert (has_bounds1 x 0 15))

;; "Assume"
(assert (has_bounds1 y 0 15))

;; "Assume"
(assert true)

;; "Assume"
(assert (has_bounds1 w 0 15))

;; "Assume"
(assert true)

;; "Assume"
(assert (has_bounds1 t 0 3))

(declare-const temp___1495 map2)

;; "H"
(assert (has_bounds1 temp___1495 0 15))

;; "H"
(assert
  (forall ((temp___1494 Int))
    (! (=>
         (and (<= 0 temp___1494) (<= temp___1494 15))
         (= (to_rep1 (get1 temp___1495 temp___1494)) #x00000000)) :pattern (
    (get1
      temp___1495
      temp___1494)) )))

;; "H"
(assert (= temp___1495 (temp_____aggregate_def_1491 #x00000000)))

;; "temp_____aggregate_def_1491'result'unused"
(define-fun temp_____aggregate_def_1491qtresultqtunused () map2
  temp___1495)

(declare-const w1 map2)

;; "w'unused"
(define-fun wqtunused1 () map__ref
  (map__refqtmk w1))

;; "H"
(assert (= w1 temp___1495))

;; "o"
(define-fun o () us_split_fields
  (us_split_fields1 k))

;; "__split_fields'result'unused"
(define-fun us_split_fieldsqtresultqtunused () us_split_fields
  o)

;; "temp___1585"
(define-fun temp___1585 () map1
  (rec__ada___sparknacl__core__salsa20_key__f o))

;; "rec__ada___sparknacl__core__salsa20_key__f'result'unused"
(define-fun rec__ada___sparknacl__core__salsa20_key__fqtresultqtunused 
  () map1
  temp___1585)

;; "Assert"
(assert
  (=> (<= 28 31) (and (and (<= 0 28) (<= 28 31)) (and (<= 0 31) (<= 31 31)))))

;; "temp___1588"
(define-fun temp___1588 () map1
  (slice temp___1585 28 31))

;; "slice'result'unused"
(define-fun sliceqtresultqtunused () map1
  temp___1588)

;; "temp___1589"
(define-fun temp___1589 () map1
  (slide temp___1588 28 0))

;; "slide'result'unused"
(define-fun slideqtresultqtunused () map1
  temp___1589)

;; "o"
(define-fun o1 () (_ BitVec 32)
  (ld32 temp___1589))

;; "H"
(assert (ld32__function_guard o1 temp___1589))

;; "H"
(assert true)

;; "ld32'result'unused"
(define-fun ld32qtresultqtunused () (_ BitVec 32)
  o1)

;; "Assert"
(assert
  (=> (<= 12 15) (and (and (<= 0 12) (<= 12 15)) (and (<= 0 15) (<= 15 15)))))

;; "temp___1583"
(define-fun temp___1583 () map1
  (slice input 12 15))

;; "slice'result'unused"
(define-fun sliceqtresultqtunused1 () map1
  temp___1583)

;; "temp___1584"
(define-fun temp___1584 () map1
  (slide temp___1583 12 0))

;; "slide'result'unused"
(define-fun slideqtresultqtunused1 () map1
  temp___1584)

;; "o"
(define-fun o2 () (_ BitVec 32)
  (ld32 temp___1584))

;; "H"
(assert (ld32__function_guard o2 temp___1584))

;; "H"
(assert true)

;; "ld32'result'unused"
(define-fun ld32qtresultqtunused1 () (_ BitVec 32)
  o2)

;; "o"
(define-fun o3 () us_split_fields
  (us_split_fields1 k))

;; "__split_fields'result'unused"
(define-fun us_split_fieldsqtresultqtunused1 () us_split_fields
  o3)

;; "temp___1576"
(define-fun temp___1576 () map1
  (rec__ada___sparknacl__core__salsa20_key__f o3))

;; "rec__ada___sparknacl__core__salsa20_key__f'result'unused"
(define-fun rec__ada___sparknacl__core__salsa20_key__fqtresultqtunused1 
  () map1
  temp___1576)

;; "Assert"
(assert
  (=> (<= 12 15) (and (and (<= 0 12) (<= 12 31)) (and (<= 0 15) (<= 15 31)))))

;; "temp___1579"
(define-fun temp___1579 () map1
  (slice temp___1576 12 15))

;; "slice'result'unused"
(define-fun sliceqtresultqtunused2 () map1
  temp___1579)

;; "temp___1580"
(define-fun temp___1580 () map1
  (slide temp___1579 12 0))

;; "slide'result'unused"
(define-fun slideqtresultqtunused2 () map1
  temp___1580)

;; "o"
(define-fun o4 () (_ BitVec 32)
  (ld32 temp___1580))

;; "H"
(assert (ld32__function_guard o4 temp___1580))

;; "H"
(assert true)

;; "ld32'result'unused"
(define-fun ld32qtresultqtunused2 () (_ BitVec 32)
  o4)

;; "Assert"
(assert
  (=> (<= 12 15) (and (and (<= 0 12) (<= 12 15)) (and (<= 0 15) (<= 15 15)))))

;; "temp___1574"
(define-fun temp___1574 () map1
  (slice c 12 15))

;; "slice'result'unused"
(define-fun sliceqtresultqtunused3 () map1
  temp___1574)

;; "temp___1575"
(define-fun temp___1575 () map1
  (slide temp___1574 12 0))

;; "slide'result'unused"
(define-fun slideqtresultqtunused3 () map1
  temp___1575)

;; "o"
(define-fun o5 () (_ BitVec 32)
  (ld32 temp___1575))

;; "H"
(assert (ld32__function_guard o5 temp___1575))

;; "H"
(assert true)

;; "ld32'result'unused"
(define-fun ld32qtresultqtunused3 () (_ BitVec 32)
  o5)

;; "o"
(define-fun o6 () us_split_fields
  (us_split_fields1 k))

;; "__split_fields'result'unused"
(define-fun us_split_fieldsqtresultqtunused2 () us_split_fields
  o6)

;; "temp___1567"
(define-fun temp___1567 () map1
  (rec__ada___sparknacl__core__salsa20_key__f o6))

;; "rec__ada___sparknacl__core__salsa20_key__f'result'unused"
(define-fun rec__ada___sparknacl__core__salsa20_key__fqtresultqtunused2 
  () map1
  temp___1567)

;; "Assert"
(assert
  (=> (<= 24 27) (and (and (<= 0 24) (<= 24 31)) (and (<= 0 27) (<= 27 31)))))

;; "temp___1570"
(define-fun temp___1570 () map1
  (slice temp___1567 24 27))

;; "slice'result'unused"
(define-fun sliceqtresultqtunused4 () map1
  temp___1570)

;; "temp___1571"
(define-fun temp___1571 () map1
  (slide temp___1570 24 0))

;; "slide'result'unused"
(define-fun slideqtresultqtunused4 () map1
  temp___1571)

;; "o"
(define-fun o7 () (_ BitVec 32)
  (ld32 temp___1571))

;; "H"
(assert (ld32__function_guard o7 temp___1571))

;; "H"
(assert true)

;; "ld32'result'unused"
(define-fun ld32qtresultqtunused4 () (_ BitVec 32)
  o7)

;; "Assert"
(assert
  (=> (<= 8 11) (and (and (<= 0 8) (<= 8 15)) (and (<= 0 11) (<= 11 15)))))

;; "temp___1565"
(define-fun temp___1565 () map1
  (slice input 8 11))

;; "slice'result'unused"
(define-fun sliceqtresultqtunused5 () map1
  temp___1565)

;; "temp___1566"
(define-fun temp___1566 () map1
  (slide temp___1565 8 0))

;; "slide'result'unused"
(define-fun slideqtresultqtunused5 () map1
  temp___1566)

;; "o"
(define-fun o8 () (_ BitVec 32)
  (ld32 temp___1566))

;; "H"
(assert (ld32__function_guard o8 temp___1566))

;; "H"
(assert true)

;; "ld32'result'unused"
(define-fun ld32qtresultqtunused5 () (_ BitVec 32)
  o8)

;; "o"
(define-fun o9 () us_split_fields
  (us_split_fields1 k))

;; "__split_fields'result'unused"
(define-fun us_split_fieldsqtresultqtunused3 () us_split_fields
  o9)

;; "temp___1558"
(define-fun temp___1558 () map1
  (rec__ada___sparknacl__core__salsa20_key__f o9))

;; "rec__ada___sparknacl__core__salsa20_key__f'result'unused"
(define-fun rec__ada___sparknacl__core__salsa20_key__fqtresultqtunused3 
  () map1
  temp___1558)

;; "Assert"
(assert
  (=> (<= 8 11) (and (and (<= 0 8) (<= 8 31)) (and (<= 0 11) (<= 11 31)))))

;; "temp___1561"
(define-fun temp___1561 () map1
  (slice temp___1558 8 11))

;; "slice'result'unused"
(define-fun sliceqtresultqtunused6 () map1
  temp___1561)

;; "temp___1562"
(define-fun temp___1562 () map1
  (slide temp___1561 8 0))

;; "slide'result'unused"
(define-fun slideqtresultqtunused6 () map1
  temp___1562)

;; "o"
(define-fun o10 () (_ BitVec 32)
  (ld32 temp___1562))

;; "H"
(assert (ld32__function_guard o10 temp___1562))

;; "H"
(assert true)

;; "ld32'result'unused"
(define-fun ld32qtresultqtunused6 () (_ BitVec 32)
  o10)

;; "Assert"
(assert
  (=> (<= 8 11) (and (and (<= 0 8) (<= 8 15)) (and (<= 0 11) (<= 11 15)))))

;; "temp___1556"
(define-fun temp___1556 () map1
  (slice c 8 11))

;; "slice'result'unused"
(define-fun sliceqtresultqtunused7 () map1
  temp___1556)

;; "temp___1557"
(define-fun temp___1557 () map1
  (slide temp___1556 8 0))

;; "slide'result'unused"
(define-fun slideqtresultqtunused7 () map1
  temp___1557)

;; "o"
(define-fun o11 () (_ BitVec 32)
  (ld32 temp___1557))

;; "H"
(assert (ld32__function_guard o11 temp___1557))

;; "H"
(assert true)

;; "ld32'result'unused"
(define-fun ld32qtresultqtunused7 () (_ BitVec 32)
  o11)

;; "o"
(define-fun o12 () us_split_fields
  (us_split_fields1 k))

;; "__split_fields'result'unused"
(define-fun us_split_fieldsqtresultqtunused4 () us_split_fields
  o12)

;; "temp___1549"
(define-fun temp___1549 () map1
  (rec__ada___sparknacl__core__salsa20_key__f o12))

;; "rec__ada___sparknacl__core__salsa20_key__f'result'unused"
(define-fun rec__ada___sparknacl__core__salsa20_key__fqtresultqtunused4 
  () map1
  temp___1549)

;; "Assert"
(assert
  (=> (<= 20 23) (and (and (<= 0 20) (<= 20 31)) (and (<= 0 23) (<= 23 31)))))

;; "temp___1552"
(define-fun temp___1552 () map1
  (slice temp___1549 20 23))

;; "slice'result'unused"
(define-fun sliceqtresultqtunused8 () map1
  temp___1552)

;; "temp___1553"
(define-fun temp___1553 () map1
  (slide temp___1552 20 0))

;; "slide'result'unused"
(define-fun slideqtresultqtunused8 () map1
  temp___1553)

;; "o"
(define-fun o13 () (_ BitVec 32)
  (ld32 temp___1553))

;; "H"
(assert (ld32__function_guard o13 temp___1553))

;; "H"
(assert true)

;; "ld32'result'unused"
(define-fun ld32qtresultqtunused8 () (_ BitVec 32)
  o13)

;; "H"
(assert (<= 4 7))

;; Goal "def'vc"
;; File "sparknacl-core.adb", line 14, characters 0-0
(assert
  (not (<= 0 7)))

(check-sat)
